/*********************************************
    * Lab01 - simple
    * Author: Coso
    * Creation Date: Mar, 2019
    *********************************************/
instance_name = "small_instance_21_simple";

d = 2;
r = 3;

SCj = [159 159];
Dk = [92 91 85];

Cjk = [[58 77 66]
 [66 34 67]];
